&GLOBAL
  PROJECT  Bi2Te3
  PRINT_LEVEL MEDIUM
  RUN_TYPE ENERGY
  EXTENDED_FFT_LENGTHS T  
&END GLOBAL
&FORCE_EVAL
  METHOD Quickstep
  &DFT
    BASIS_SET_FILE_NAME  /pc2/groups/hpc-prf-metdyn/metdyn06_Bibek/fcp2k/cp2k/data/BASIS_MOLOPT
    POTENTIAL_FILE_NAME /pc2/groups/hpc-prf-metdyn/metdyn06_Bibek/fcp2k/cp2k/data/POTENTIAL
    CHARGE 0
    &MGRID
      CUTOFF  500
      REL_CUTOFF  100
    &END MGRID
    &QS
      METHOD GAPW
      EPS_DEFAULT 1.0E-12
      EPS_PGF_ORB 1.0E-12
    &END QS
    &SCF
      SCF_GUESS ATOMIC
      EPS_SCF 1.0E-10
      MAX_SCF 500
      &PRINT
        &RESTART ON
        &END
      &END
      ADDED_MOS -1
      CHOLESKY INVERSE
      &SMEAR ON
      METHOD FERMI_DIRAC
      &END SMEAR
      &DIAGONALIZATION
      ALGORITHM STANDARD
      &END DIAGONALIZATION
      &MIXING
          METHOD BROYDEN_MIXING
          ALPHA 0.1
          BETA 1.5
          NBROYDEN 8
      &END
    &END SCF
    &XC
      &XC_FUNCTIONAL PBE
      &END XC_FUNCTIONAL
    &END XC
    &KPOINTS
      SCHEME MONKHORST-PACK 24 24 1
      PARALLEL_GROUP_SIZE   -1
    &END KPOINTS
&PRINT
         &BAND_STRUCTURE
            ADDED_MOS -1
            FILE_NAME bi2te3.bs
            &KPOINT_SET
        	NPOINTS 80
                 SPECIAL_POINT Kd     0.3333333      0.3333333      0.00000
                SPECIAL_POINT GAMMA   0.0000000      0.0000000      0.00000
                SPECIAL_POINT Kd      0.3333333      0.3333333      0.00000  
          &END
         &END BAND_STRUCTURE
      &END PRINT
  &END DFT

  &SUBSYS
    &CELL
      A   4.38600174  0.00000000   0.00000000
      B  -2.19300087  3.79838893   0.00000000
      C  -0.00000000  0.00000000   121.760000
      ALPHA_BETA_GAMMA    90 90 120
      PERIODIC XY
      MULTIPLE_UNIT_CELL 1 1 1
    &END CELL
 
    &KIND Bi
      BASIS_SET DZVP-MOLOPT-SR-GTH
      POTENTIAL        GTH-PBE
    &END KIND

    &KIND Te
      BASIS_SET DZVP-MOLOPT-SR-GTH
      POTENTIAL        GTH-PBE
    &END KIND

    &TOPOLOGY
       MULTIPLE_UNIT_CELL 1 1 1
    &END TOPOLOGY

    &COORD
Bi    0.000000    0.000000   12.190003
Bi    0.000000    0.000000  109.569999
Bi    2.197500    1.268727   22.336670
Bi    2.197500    1.268727  119.716666
Bi    0.000000    2.537454   32.483336
Bi    0.000000    2.537454    8.103331
Bi    0.000000    0.000000   79.129999
Bi    2.197500    1.268727   89.276666
Bi    0.000000    2.537454   99.423333
Bi    2.197500    1.268727   83.216671
Bi    0.000000    2.537454   93.363338
Bi    0.000000    0.000000  103.510004
Bi    0.000000    0.000000   18.249998
Bi    2.197500    1.268727  113.656671
Bi    2.197500    1.268727   28.396665
Bi    0.000000    2.537454    2.043336
Te    0.000000    0.000000  121.760002
Te    2.197500    1.268727   10.146667
Te    0.000000    2.537454   20.293334
Te    0.000000    0.000000   30.440001
Te    0.000000    0.000000   91.320002
Te    2.197500    1.268727  101.466668
Te    0.000000    2.537454  111.613335
Te    0.000000    2.537454   81.173335
Te    0.000000    0.000000   24.056733
Te    0.000000    0.000000   97.703269
Te    2.197500    1.268727   34.203400
Te    2.197500    1.268727  107.849936
Te    0.000000    2.537454  117.996603
Te    2.197500    1.268727   77.409936
Te    0.000000    2.537454   87.556603
Te    0.000000    0.000000   84.936734
Te    2.197500    1.268727   95.083401
Te    0.000000    2.537454  105.230068
Te    0.000000    0.000000  115.376734
Te    0.000000    0.000000    6.383268
Te    2.197500    1.268727    3.763399
Te    2.197500    1.268727   16.529935
Te    0.000000    2.537454   13.910066
Te    0.000000    2.537454   26.676601       
    &END COORD
  &END SUBSYS
&END FORCE_EVAL
